7
0, 466, 90, 119, 298, 113, 403
466, 0, 553, 582, 239, 543, 737
90, 553, 0, 67, 368, 119, 346
119, 582, 67, 0, 416, 73, 400
298, 239, 368, 416, 0, 403, 499
113, 543, 119, 73, 403, 0, 465
403, 737, 346, 400, 499, 465, 0
